language ESSENCE' 1.0
letting AssignmentMatrix be [[0, 0, 1, 1, 0, 0, 1, 0, 1, 1, 1, 1, 1, 0, 0, 1, 0, 0, 1, 1, 0, 0, 0, 0, 0], 
[0, 1, 0, 0, 1, 1, 0, 0, 0, 0, 0, 0, 0, 0, 1, 0, 1, 1, 0, 0, 0, 1, 1, 0, 0], 
[0, 0, 0, 0, 0, 0, 0, 0, 0, 0, 0, 0, 0, 0, 0, 0, 0, 0, 0, 0, 0, 0, 0, 0, 0], 
[0, 0, 0, 0, 0, 0, 0, 1, 0, 0, 0, 0, 0, 1, 0, 0, 0, 0, 0, 0, 1, 0, 0, 0, 1], 
[1, 0, 0, 0, 0, 0, 0, 0, 0, 0, 0, 0, 0, 0, 0, 0, 0, 0, 0, 0, 0, 0, 0, 1, 0]]
letting CPU be [4, 4, 2, 2, 4, 4, 2, 4, 4, 2, 2, 2, 2, 4, 4, 2, 4, 4, 2, 2, 4, 4, 4, 4, 4]
letting Memory be [7500, 7500, 3750, 3750, 7500, 7500, 3750, 7500, 7500, 7500, 3750, 3750, 3750, 7500, 7500, 3750, 7500, 7500, 3750, 3750, 7500, 7500, 7500, 7500, 7500]
letting Price be [210, 210, 116, 116, 210, 210, 116, 210, 210, 161, 116, 116, 116, 210, 210, 116, 210, 210, 116, 116, 210, 210, 210, 210, 210]
letting Storage be [2000, 2000, 2000, 2000, 2000, 2000, 2000, 2000, 2000, 1000, 2000, 2000, 2000, 2000, 2000, 2000, 2000, 2000, 2000, 2000, 2000, 2000, 2000, 2000, 2000]
letting VMType be [341, 341, 433, 433, 341, 341, 433, 341, 341, 419, 433, 433, 433, 341, 341, 433, 341, 341, 433, 433, 341, 341, 341, 341, 341]
